NAME : bier127.tsp
TYPE : TOUR
DIMENSION : 127
TOUR_LENGTH : 126272.27279478978
TOUR_SECTION
1
16
41
36
37
35
40
43
34
42
39
38
25
33
122
28
29
32
98
97
123
95
93
127
107
111
112
94
46
118
48
53
49
47
55
66
65
99
92
89
104
125
113
64
58
100
10
115
5
52
124
56
121
54
45
103
44
57
51
2
50
13
120
114
11
9
3
91
61
62
59
60
90
116
67
73
74
77
78
76
68
75
69
70
71
110
85
86
87
88
109
96
119
63
102
101
83
82
126
81
84
117
80
79
31
27
26
30
14
12
15
108
20
17
21
18
72
8
19
22
4
23
24
6
106
105
7
-1
